qbf_easy_train/easy_2548_SAT.qdimacs
p cnf 24 57
a 18 12 23 0
e 1 2 3 4 5 6 7 8 9 10 11 13 14 15 16 17 19 20 21 22 24 0
1 2 -3 0
-1 -2 -3 0
1 -2 3 0
-1 2 3 0
3 4 -5 0
-3 -4 -5 0
3 -4 5 0
-3 4 5 0
8 6 0
8 -7 0
-6 7 -8 0
-9 5 0
-9 8 0
-5 -8 9 0
-11 2 0
-11 -10 0
-2 10 11 0
12 13 0
-12 13 0
-15 -13 0
-15 -14 0
13 14 15 0
-16 -11 0
-16 -15 0
11 15 16 0
17 -1 0
17 -12 0
1 12 -17 0
18 17 0
18 14 0
-17 -14 -18 0
-18 17 -19 0
18 -17 -19 0
-18 -17 19 0
18 17 19 0
20 -19 0
20 -3 0
19 3 -20 0
17 -14 -21 0
-17 14 -21 0
17 14 21 0
-17 -14 21 0
22 -20 0
22 -21 0
20 21 -22 0
23 -16 0
23 22 0
16 -22 -23 0
24 -9 0
24 -23 0
9 23 -24 0
8 -21 -9 0
8 10 -2 0
20 1 19 4 -3 13 -5 0
-14 1 24 5 0
-5 -13 -15 19 10 0
24 0
