sat_easy_train/easy_2548_SAT.dimacs
p cnf 121 390
4 2 0
4 -3 0
-2 3 -4 0
-5 1 0
-5 4 0
-1 -4 5 0
8 6 0
8 7 0
-6 -7 -8 0
9 2 0
9 -8 0
-2 8 -9 0
10 5 0
10 -9 0
-5 9 -10 0
13 11 0
13 -12 0
-11 12 -13 0
13 1 -14 0
-13 -1 -14 0
13 -1 14 0
-13 1 14 0
-15 16 -17 0
15 -16 -17 0
-15 -16 17 0
15 16 17 0
18 -17 0
18 -6 0
17 6 -18 0
-19 18 0
-19 16 0
-18 -16 19 0
-14 -19 -20 0
14 19 -20 0
-14 19 20 0
14 -19 20 0
21 -10 0
21 20 0
10 -20 -21 0
-5 -22 -23 0
5 22 -23 0
-5 22 23 0
5 -22 23 0
25 -11 0
25 8 0
11 -8 -25 0
27 -22 0
27 -26 0
22 26 -27 0
28 25 0
28 27 0
-25 -27 -28 0
-29 28 0
-29 2 0
-28 -2 29 0
1 29 -30 0
-1 -29 -30 0
1 -29 30 0
-1 29 30 0
24 30 -31 0
-24 -30 -31 0
24 -30 31 0
-24 30 31 0
2 6 -32 0
-2 -6 -32 0
2 -6 32 0
-2 6 32 0
33 31 0
33 32 0
-31 -32 -33 0
-34 -23 0
-34 33 0
23 -33 34 0
-35 -11 0
-35 -2 0
11 2 35 0
36 22 0
36 35 0
-22 -35 -36 0
-37 36 0
-37 -27 0
-36 27 37 0
39 37 0
39 38 0
-37 -38 -39 0
-40 34 0
-40 39 0
-34 -39 40 0
-42 41 0
-42 11 0
-41 -11 42 0
-43 4 0
-43 12 0
-4 -12 43 0
-44 -42 0
-44 43 0
42 -43 44 0
25 -11 -45 0
-25 11 -45 0
25 11 45 0
-25 -11 45 0
-46 -26 0
-46 7 0
26 -7 46 0
-47 -22 0
-47 16 0
22 -16 47 0
48 -46 0
48 47 0
46 -47 -48 0
49 5 0
49 48 0
-5 -48 -49 0
50 45 0
50 49 0
-45 -49 -50 0
51 44 0
51 50 0
-44 -50 -51 0
52 -41 0
52 -6 0
41 6 -52 0
52 -25 -53 0
-52 25 -53 0
52 25 53 0
-52 -25 53 0
54 -15 0
54 3 0
15 -3 -54 0
55 53 0
55 -54 0
-53 54 -55 0
56 -51 0
56 55 0
51 -55 -56 0
-57 4 0
-57 -7 0
-4 7 57 0
-58 45 0
-58 57 0
-45 -57 58 0
-59 58 0
-59 58 0
-58 59 0
-59 -15 -60 0
59 15 -60 0
-59 15 60 0
59 -15 60 0
62 -61 0
62 3 0
61 -3 -62 0
63 62 0
63 -11 0
-62 11 -63 0
-64 60 0
-64 63 0
-60 -63 64 0
65 -41 0
65 -11 0
41 11 -65 0
-66 48 0
-66 -65 0
-48 65 66 0
64 -66 -67 0
-64 66 -67 0
64 66 67 0
-64 -66 67 0
68 56 0
68 67 0
-56 -67 -68 0
-69 -40 0
-69 -68 0
40 68 69 0
70 -62 0
70 24 0
62 -24 -70 0
-24 15 -71 0
24 -15 -71 0
-24 -15 71 0
24 15 71 0
-71 12 -72 0
71 -12 -72 0
-71 -12 72 0
71 12 72 0
73 -70 0
73 -72 0
70 72 -73 0
74 65 0
74 28 0
-65 -28 -74 0
75 73 0
75 -74 0
-73 74 -75 0
77 -76 0
77 -41 0
76 41 -77 0
-78 7 0
-78 77 0
-7 -77 78 0
79 -7 0
79 14 0
7 -14 -79 0
78 -79 -80 0
-78 79 -80 0
78 79 80 0
-78 -79 80 0
-81 75 0
-81 80 0
-75 -80 81 0
-82 -69 0
-82 -81 0
69 81 82 0
83 -21 0
83 -82 0
21 82 -83 0
-84 11 0
-84 -54 0
-11 54 84 0
-3 24 -85 0
3 -24 -85 0
-3 -24 85 0
3 24 85 0
86 -85 0
86 47 0
85 -47 -86 0
-87 -4 0
-87 71 0
4 -71 87 0
-4 15 -88 0
4 -15 -88 0
-4 -15 88 0
4 15 88 0
89 -88 0
89 9 0
88 -9 -89 0
90 -87 0
90 89 0
87 -89 -90 0
14 -29 -91 0
-14 29 -91 0
14 29 91 0
-14 -29 91 0
90 91 -92 0
-90 -91 -92 0
90 -91 92 0
-90 91 92 0
-93 86 0
-93 -92 0
-86 92 93 0
-94 -84 0
-94 93 0
84 -93 94 0
95 -22 0
95 2 0
22 -2 -95 0
-96 88 0
-96 -6 0
-88 6 96 0
-95 -96 -97 0
95 96 -97 0
-95 96 97 0
95 -96 97 0
-98 22 0
-98 85 0
-22 -85 98 0
-99 97 0
-99 -98 0
-97 98 99 0
100 -19 0
100 -57 0
19 57 -100 0
101 48 0
101 22 0
-48 -22 -101 0
-102 100 0
-102 -101 0
-100 101 102 0
28 -48 -103 0
-28 48 -103 0
28 48 103 0
-28 -48 103 0
104 -102 0
104 103 0
102 -103 -104 0
-105 -99 0
-105 104 0
99 -104 105 0
106 94 0
106 -105 0
-94 105 -106 0
-83 -106 -107 0
83 106 -107 0
-83 106 107 0
83 -106 107 0
-108 53 0
-108 96 0
-53 -96 108 0
-108 48 -109 0
108 -48 -109 0
-108 -48 109 0
108 48 109 0
-110 -15 0
-110 25 0
15 -25 110 0
4 -110 -111 0
-4 110 -111 0
4 110 111 0
-4 -110 111 0
-112 -46 0
-112 -111 0
46 111 112 0
113 -112 0
113 5 0
112 -5 -113 0
114 109 0
114 113 0
-109 -113 -114 0
115 -2 0
115 47 0
2 -47 -115 0
-116 -58 0
-116 96 0
58 -96 116 0
117 65 0
117 18 0
-65 -18 -117 0
118 -116 0
118 -117 0
116 117 -118 0
-119 115 0
-119 -118 0
-115 118 119 0
120 114 0
120 -119 0
-114 119 -120 0
-121 -107 0
-121 -120 0
107 120 121 0
-42 -105 0
91 -12 40 -118 -74 0
20 115 19 0
6 -3 -88 68 0
-52 74 -10 -41 0
-105 -1 109 10 0
86 65 -92 9 104 29 0
57 98 112 0
51 -76 -11 -94 -13 96 0
-3 -112 118 0
10 -76 -45 0
29 -2 0
-92 61 0
-14 -35 -54 -44 91 0
26 100 -94 -53 8 0
-1 59 6 112 28 0
10 -55 47 0
-79 21 0
44 -81 -17 119 25 0
15 17 28 30 0
108 -2 0
-55 88 -104 -64 0
-45 -86 0
19 -101 -43 49 5 0
82 -75 -84 -52 0
103 1 0
46 3 0
38 -4 46 -5 0
-8 -110 -78 -73 68 -21 0
118 67 31 -40 -106 0
95 25 0
7 69 0
-12 36 0
-45 -32 90 0
112 -18 0
95 -120 100 0
26 -104 -49 11 0
52 -6 20 -81 0
-121 50 30 116 0
80 121 -50 94 32 42 0
26 18 50 87 113 -44 0
3 86 53 118 -4 -10 0
103 21 64 0
40 90 19 -92 -49 0
74 -19 -98 -22 0
47 -8 -84 -107 -99 0
-24 58 66 -15 70 0
-102 48 2 113 59 0
-53 107 15 -79 18 0
-76 -59 100 0
-63 82 -116 0
121 0
